<number of tasks>
35

<cycle time>
49

<task times>
1 29
2 3
3 5
4 22
5 6
6 14
7 2
8 5
9 22
10 30
11 23
12 30
13 23
14 2
15 19
16 29
17 2
18 2
19 19
20 29
21 6
22 10
23 16
24 23
25 5
26 5
27 5
28 40
29 2
30 5
31 5
32 1
33 40
34 2
35 2

<precedence relations>
1,2
1,5
1,10
1,12
2,3
3,4
4,11
5,6
6,7
6,8
7,14
7,18
8,9
9,13
10,14
11,28
11,33
12,18
13,28
13,33
14,15
15,16
16,21
17,20
18,19
19,20
20,21
21,22
21,25
21,30
22,23
23,24
24,27
25,26
26,27
27,28
27,33
27,34
28,29
30,31
31,32
32,33
33,35

<setup times forward>
1,2:1
1,10:1
1,17:1
2,5:1
2,6:1
2,12:1
2,15:1
2,16:1
2,19:1
2,20:1
2,21:2
2,25:2
2,26:2
2,27:1
2,30:2
2,31:2
2,32:2
2,34:2
3,5:1
3,6:1
3,12:1
3,15:1
3,16:1
3,19:1
3,20:1
3,21:2
3,25:2
3,26:2
3,27:1
3,30:2
3,31:2
3,32:2
3,34:2
4,5:1
4,6:1
4,11:2
4,12:1
4,15:1
4,16:1
4,19:1
4,20:1
4,21:2
4,25:2
4,26:2
4,27:1
4,30:2
4,31:2
4,32:2
4,34:2
5,2:1
5,3:1
5,4:1
5,10:1
5,11:1
5,17:1
6,2:1
6,3:1
6,4:1
6,7:1
6,8:1
6,10:1
6,11:1
6,17:1
7,11:2
7,12:1
8,11:2
8,12:1
8,15:1
8,16:1
8,19:1
8,20:1
8,21:2
8,25:2
8,26:2
8,27:1
8,30:2
8,31:2
8,32:2
8,34:2
9,11:2
9,12:1
9,15:1
9,16:1
9,19:1
9,20:1
9,21:2
9,25:2
9,26:2
9,27:1
9,30:2
9,31:2
9,32:2
9,34:2
10,5:1
10,6:1
10,11:2
10,12:1
10,19:1
10,20:1
11,5:1
11,6:1
11,7:2
11,8:2
11,9:2
11,10:2
11,12:1
11,13:2
11,14:2
11,15:1
11,16:1
11,17:2
11,18:2
11,19:1
11,20:1
11,22:2
11,23:2
11,24:2
11,27:1
11,28:1
12,2:1
12,3:1
12,4:1
12,7:1
12,8:1
12,9:1
12,10:1
12,11:1
12,13:1
12,14:1
12,17:1
12,18:1
13,11:2
13,12:1
13,15:1
13,16:1
13,19:1
13,20:1
13,21:2
13,25:2
13,26:2
13,27:1
13,28:1
13,30:2
13,31:2
13,32:2
13,33:2
13,34:2
14,11:2
14,12:1
14,15:1
14,19:1
14,20:1
15,2:1
15,3:1
15,4:1
15,8:1
15,9:1
15,11:1
15,13:1
15,17:1
15,18:1
16,2:1
16,3:1
16,4:1
16,8:1
16,9:1
16,11:1
16,13:1
16,17:1
16,18:1
16,21:1
17,1:1
17,5:1
17,6:1
17,11:2
17,12:1
17,15:1
17,16:1
17,19:1
17,20:1
18,11:2
18,15:1
18,16:1
18,19:1
19,2:1
19,3:1
19,4:1
19,8:1
19,9:1
19,10:1
19,11:1
19,13:1
19,14:1
19,17:1
20,2:1
20,3:1
20,4:1
20,8:1
20,9:1
20,10:1
20,11:1
20,13:1
20,14:1
20,21:1
21,2:2
21,3:2
21,4:2
21,8:2
21,9:2
21,13:2
21,22:2
22,11:2
22,25:2
22,26:2
22,30:2
22,31:2
22,32:2
23,11:2
23,25:2
23,26:2
23,30:2
23,31:2
23,32:2
24,11:2
24,25:2
24,26:2
24,27:1
24,30:2
24,31:2
24,32:2
25,2:2
25,3:2
25,4:2
25,8:2
25,9:2
25,13:2
25,22:2
25,23:2
25,24:2
26,2:2
26,3:2
26,4:2
26,8:2
26,9:2
26,13:2
26,22:2
26,23:2
26,24:2
26,27:1
27,2:1
27,3:1
27,4:1
27,8:1
27,9:1
27,11:1
27,13:1
27,30:1
27,31:1
27,32:1
27,33:1
27,34:1
28,29:1
28,30:1
28,31:1
28,32:1
28,33:1
28,34:1
28,35:1
30,2:2
30,3:2
30,4:2
30,8:2
30,9:2
30,13:2
30,22:2
30,23:2
30,24:2
30,27:1
30,28:1
31,2:2
31,3:2
31,4:2
31,8:2
31,9:2
31,13:2
31,22:2
31,23:2
31,24:2
31,27:1
31,28:1
32,2:2
32,3:2
32,4:2
32,8:2
32,9:2
32,13:2
32,22:2
32,23:2
32,24:2
32,27:1
32,28:1
33,28:1
34,2:2
34,3:2
34,4:2
34,8:2
34,9:2
34,13:2
34,28:1
35,28:1

<setup times backward>
2,1:1
2,5:1
2,6:1
2,12:1
2,15:1
2,16:1
2,19:1
2,20:1
2,21:2
2,25:2
2,26:2
2,27:1
2,30:2
2,31:2
2,32:2
2,34:2
3,1:1
3,5:1
3,6:1
3,12:1
3,15:1
3,16:1
3,19:1
3,20:1
3,21:2
3,25:2
3,26:2
3,27:1
3,30:2
3,31:2
3,32:2
3,34:2
4,1:1
4,5:1
4,6:1
4,12:1
4,15:1
4,16:1
4,19:1
4,20:1
4,21:2
4,25:2
4,26:2
4,27:1
4,30:2
4,31:2
4,32:2
4,34:2
5,11:1
6,11:1
7,1:1
7,5:1
7,6:1
7,11:2
7,12:1
8,1:1
8,5:1
8,6:1
8,11:2
8,12:1
8,15:1
8,16:1
8,19:1
8,20:1
8,21:2
8,25:2
8,26:2
8,27:1
8,30:2
8,31:2
8,32:2
8,34:2
9,1:1
9,5:1
9,6:1
9,11:2
9,12:1
9,15:1
9,16:1
9,19:1
9,20:1
9,21:2
9,25:2
9,26:2
9,27:1
9,30:2
9,31:2
9,32:2
9,34:2
10,1:1
10,5:1
10,6:1
10,11:2
10,12:1
10,19:1
10,20:1
12,11:1
13,1:1
13,5:1
13,6:1
13,11:2
13,12:1
13,15:1
13,16:1
13,19:1
13,20:1
13,21:2
13,25:2
13,26:2
13,27:1
13,30:2
13,31:2
13,32:2
13,34:2
14,1:1
14,5:1
14,6:1
14,11:2
14,12:1
14,19:1
14,20:1
15,11:1
16,11:1
17,1:1
17,5:1
17,6:1
17,11:2
17,12:1
17,15:1
17,16:1
17,19:1
18,1:1
18,5:1
18,6:1
18,11:2
18,12:1
18,15:1
18,16:1
19,11:1
20,11:1
22,1:1
22,5:1
22,6:1
22,11:2
22,12:1
22,15:1
22,16:1
22,19:1
22,20:1
22,21:2
22,25:2
22,26:2
22,30:2
22,31:2
22,32:2
23,1:1
23,5:1
23,6:1
23,11:2
23,12:1
23,15:1
23,16:1
23,19:1
23,20:1
23,21:2
23,25:2
23,26:2
23,30:2
23,31:2
23,32:2
24,1:1
24,5:1
24,6:1
24,11:2
24,12:1
24,15:1
24,16:1
24,19:1
24,20:1
24,21:2
24,25:2
24,26:2
24,30:2
24,31:2
24,32:2
27,11:1
27,21:1
27,25:1
27,26:1
27,30:1
27,31:1
27,32:1
28,11:1
28,21:1
28,25:1
28,26:1
28,30:1
28,31:1
28,32:1
28,33:1
28,34:1
28,35:1

<end>

<optimal SALBP-1 value>
11


<rand seed>
467321153

